100 100
14 9
21 1
13 30
34 30
32 44
32 1
45 8
4 45
27 19
48 34
21 33
10 18
28 45
26 27
8 33
37 19
46 11
28 14
23 33
29 11
8 4
40 29
3 21
41 5
2 40
40 46
34 12
23 32
7 30
13 36
14 42
39 8
3 27
35 12
37 33
37 48
37 40
17 29
46 49
6 49
33 26
17 46
7 27
10 18
9 46
34 26
7 21
6 6
25 24
21 49
23 34
38 22
17 21
48 33
48 16
26 28
42 25
18 27
41 25
1 1
20 43
23 25
37 28
14 48
1 2
41 10
47 32
30 25
10 32
39 41
18 27
28 13
37 30
8 31
6 32
13 30
19 37
15 21
20 6
47 34
14 44
20 26
30 5
24 14
22 13
16 9
45 27
26 20
12 34
41 41
7 35
28 27
1 30
16 14
29 12
34 20
27 8
2 48
2 47
5 30
